<number of tasks>
30

<cycle time>
75

<task times>
1 8
2 7
3 19
4 10
5 2
6 6
7 14
8 10
9 1
10 4
11 14
12 15
13 5
14 12
15 9
16 10
17 2
18 10
19 18
20 16
21 21
22 14
23 16
24 7
25 17
26 9
27 25
28 7
29 14
30 2

<precedence relations>
1,4
1,5
2,11
2,12
3,16
3,17
4,7
5,6
6,7
7,8
8,9
9,26
10,24
12,13
13,14
14,15
14,20
15,22
16,20
17,18
18,19
20,21
20,24
21,22
22,23
23,27
24,25
25,26
26,27
27,28
27,29
29,30

<setup times forward>
1,10:2
1,11:2
1,14:2
1,18:2
1,19:2
1,20:1
1,21:1
1,22:1
1,23:1
1,24:1
1,25:1
2,7:2
2,9:1
2,10:2
2,11:2
2,18:2
2,19:2
3,7:2
3,9:1
3,10:2
3,11:2
3,14:2
4,7:2
4,10:2
4,11:2
4,14:2
4,18:2
4,19:2
4,20:1
4,21:1
4,22:1
4,23:1
4,24:1
4,25:1
5,10:2
5,11:2
5,14:2
5,18:2
5,19:2
5,20:1
5,21:1
5,22:1
5,23:1
5,24:1
5,25:1
6,7:2
6,10:2
6,11:2
6,14:2
6,18:2
6,19:2
6,20:1
6,21:1
6,22:1
6,23:1
6,24:1
6,25:1
7,2:2
7,3:2
7,8:2
7,12:2
7,13:2
7,15:2
7,16:2
7,17:2
7,20:1
7,21:1
7,22:1
7,23:1
7,24:1
7,25:1
8,9:1
8,10:2
8,11:2
8,14:2
8,18:2
8,19:2
8,20:1
8,21:1
8,22:1
8,23:1
8,24:1
8,25:1
9,2:1
9,3:1
9,10:1
9,11:1
9,12:1
9,13:1
9,14:1
9,15:1
9,16:1
9,17:1
9,18:1
9,19:1
10,1:2
10,2:2
10,3:2
10,4:2
10,5:2
10,6:2
10,8:2
10,9:1
10,12:2
10,13:2
10,15:2
10,16:2
10,17:2
10,20:1
10,21:1
10,22:1
10,23:1
10,24:1
11,1:2
11,3:2
11,4:2
11,5:2
11,6:2
11,8:2
11,9:1
11,12:2
11,13:2
11,15:2
11,16:2
11,17:2
11,20:1
11,21:1
11,22:1
11,23:1
11,24:1
11,25:1
11,26:1
11,27:1
11,28:1
11,29:1
11,30:1
12,7:2
12,9:1
12,10:2
12,11:2
12,18:2
12,19:2
13,7:2
13,9:1
13,10:2
13,11:2
13,14:2
13,18:2
13,19:2
14,1:2
14,3:2
14,4:2
14,5:2
14,6:2
14,8:2
14,9:1
14,15:2
14,16:2
14,17:2
14,20:1
15,7:2
15,9:1
15,10:2
15,11:2
15,18:2
15,19:2
15,20:1
15,21:1
15,22:1
15,24:1
15,25:1
15,26:1
16,7:2
16,9:1
16,10:2
16,11:2
16,14:2
16,18:2
16,19:2
16,20:1
17,7:2
17,9:1
17,10:2
17,11:2
17,14:2
17,18:2
17,20:1
17,21:1
17,22:1
17,23:1
17,24:1
17,25:1
17,26:1
17,27:1
17,28:1
17,29:1
17,30:1
18,1:2
18,2:2
18,4:2
18,5:2
18,6:2
18,8:2
18,9:1
18,12:2
18,13:2
18,15:2
18,16:2
18,20:1
18,21:1
18,22:1
18,23:1
18,24:1
18,25:1
18,26:1
18,27:1
18,28:1
18,29:1
18,30:1
19,1:2
19,2:2
19,4:2
19,5:2
19,6:2
19,8:2
19,9:1
19,12:2
19,13:2
19,15:2
19,16:2
19,20:1
19,21:1
19,22:1
19,23:1
19,24:1
19,25:1
19,26:1
19,27:1
19,28:1
19,29:1
19,30:1
20,1:1
20,4:1
20,5:1
20,6:1
20,7:1
20,8:1
20,10:1
20,11:1
20,15:1
20,17:1
20,18:1
20,19:1
21,1:1
21,4:1
21,5:1
21,6:1
21,7:1
21,8:1
21,10:1
21,11:1
21,15:1
21,17:1
21,18:1
21,19:1
22,1:1
22,4:1
22,5:1
22,6:1
22,7:1
22,8:1
22,10:1
22,11:1
22,17:1
22,18:1
22,19:1
23,1:1
23,4:1
23,5:1
23,6:1
23,7:1
23,8:1
23,10:1
23,11:1
23,17:1
23,18:1
23,19:1
24,1:1
24,4:1
24,5:1
24,6:1
24,7:1
24,8:1
24,11:1
24,15:1
24,17:1
24,18:1
24,19:1
25,1:1
25,4:1
25,5:1
25,6:1
25,7:1
25,8:1
25,11:1
25,15:1
25,17:1
25,18:1
25,19:1
26,11:1
26,15:1
26,17:1
26,18:1
26,19:1
27,11:1
27,17:1
27,18:1
27,19:1
28,11:1
28,17:1
28,18:1
28,19:1
29,11:1
29,17:1
29,18:1
29,19:1
30,11:1
30,17:1
30,18:1
30,19:1

<setup times backward>
7,1:2
7,2:2
7,3:2
7,4:2
7,5:2
7,6:2
7,12:2
7,13:2
7,15:2
7,16:2
7,17:2
7,20:1
7,21:1
7,22:1
7,23:1
7,24:1
7,25:1
9,1:1
9,2:1
9,3:1
9,4:1
9,5:1
9,6:1
9,8:1
9,12:1
9,13:1
9,15:1
9,16:1
9,17:1
10,1:2
10,2:2
10,3:2
10,4:2
10,5:2
10,6:2
10,8:2
10,9:1
10,12:2
10,13:2
10,15:2
10,16:2
10,17:2
10,20:1
10,21:1
10,22:1
10,23:1
11,1:2
11,2:2
11,3:2
11,4:2
11,5:2
11,6:2
11,8:2
11,9:1
11,12:2
11,13:2
11,15:2
11,16:2
11,17:2
11,20:1
11,21:1
11,22:1
11,23:1
11,24:1
11,25:1
11,26:1
11,27:1
11,28:1
11,29:1
11,30:1
14,1:2
14,2:2
14,3:2
14,4:2
14,5:2
14,6:2
14,8:2
14,9:1
14,12:2
14,13:2
14,16:2
14,17:2
18,1:2
18,2:2
18,3:2
18,4:2
18,5:2
18,6:2
18,8:2
18,9:1
18,12:2
18,13:2
18,15:2
18,16:2
18,17:2
18,20:1
18,21:1
18,22:1
18,23:1
18,24:1
18,25:1
18,26:1
18,27:1
18,28:1
18,29:1
18,30:1
19,1:2
19,2:2
19,3:2
19,4:2
19,5:2
19,6:2
19,8:2
19,9:1
19,12:2
19,13:2
19,15:2
19,16:2
19,17:2
19,20:1
19,21:1
19,22:1
19,23:1
19,24:1
19,25:1
19,26:1
19,27:1
19,28:1
19,29:1
19,30:1
20,1:1
20,2:1
20,3:1
20,4:1
20,5:1
20,6:1
20,8:1
20,12:1
20,13:1
20,15:1
20,16:1
20,17:1
21,1:1
21,2:1
21,3:1
21,4:1
21,5:1
21,6:1
21,8:1
21,12:1
21,13:1
21,15:1
21,16:1
21,17:1
22,1:1
22,2:1
22,3:1
22,4:1
22,5:1
22,6:1
22,8:1
22,12:1
22,13:1
22,15:1
22,16:1
22,17:1
23,1:1
23,2:1
23,3:1
23,4:1
23,5:1
23,6:1
23,8:1
23,12:1
23,13:1
23,15:1
23,16:1
23,17:1
24,1:1
24,2:1
24,3:1
24,4:1
24,5:1
24,6:1
24,8:1
24,12:1
24,13:1
24,15:1
24,16:1
24,17:1
25,1:1
25,2:1
25,3:1
25,4:1
25,5:1
25,6:1
25,8:1
25,12:1
25,13:1
25,15:1
25,16:1
25,17:1
26,1:1
26,2:1
26,3:1
26,4:1
26,5:1
26,6:1
26,8:1
26,12:1
26,13:1
26,15:1
26,16:1
26,17:1
27,1:1
27,2:1
27,3:1
27,4:1
27,5:1
27,6:1
27,8:1
27,12:1
27,13:1
27,15:1
27,16:1
27,17:1
28,1:1
28,2:1
28,3:1
28,4:1
28,5:1
28,6:1
28,8:1
28,12:1
28,13:1
28,15:1
28,16:1
28,17:1
29,1:1
29,2:1
29,3:1
29,4:1
29,5:1
29,6:1
29,8:1
29,12:1
29,13:1
29,15:1
29,16:1
29,17:1
30,1:1
30,2:1
30,3:1
30,4:1
30,5:1
30,6:1
30,8:1
30,12:1
30,13:1
30,15:1
30,16:1
30,17:1

<end>

<optimal SALBP-1 value>
5


<rand seed>
467321153

<Lower Bounds>
Lm1=5
Lms1=5
Lm2=0
Lm3=1
Lm4=5
Best=5

<Optimal Stations (Iterations: 10)>
5
